(set-logic QF_S)
(declare-fun var0 () String)
(declare-fun var1 () String)
(declare-fun var2 () String)
(declare-fun var3 () Int)
(declare-fun var4 () Int)
(declare-fun var5 () Int)
(declare-fun var6 () Bool)
(declare-fun var7 () Bool)
(declare-fun var8 () Bool)
(assert (< (str.indexof var0 var1 var4) (str.indexof var0 var1 var5)))
(assert (< (str.len (str.replace "om1J<7i{h|" var0 "Kq#H;9_QR:")) (str.indexof (str.replace var0 var1 var2) (str.at var0 var3) (str.indexof var1 var1 var3))))
(assert (<= (str.indexof var1 var1 var3) (str.len (str.substr var1 var3 var5))))
(assert (not (str.suffixof var1 var2)))
(check-sat)